(set-option :print-success false)
(set-logic QF_UF)
(declare-sort x96 0)
(declare-sort x114 0)
(declare-fun x156 (x114 x114) x114)
(declare-fun x91 () x114)
(declare-fun x20 () x114)
(declare-fun x135 () x114)
(declare-fun x18 () x114)
(declare-fun x67 (x114 x114) x114)
(declare-fun x10 () x114)
(assert (and (not (= (x67 x91 x91) x91)) (and (and (not (= (x67 x18 x18) x18)) (and (not (= (x67 x135 x135) x135)) (not (= x10 (x67 x10 x10))))) (not (= x20 (x67 x20 x20))))))
(assert (and (and (= x20 (x67 x135 x135)) (and (= x18 (x67 x135 x20)) (= x10 (x67 x135 x18)))) (= x91 (x67 x20 x20))))
(assert (let ((x148 (x67 x135 x91)) (x79 (x67 x91 x135)) (x9 (x67 x91 x20)) (x77 (x67 x91 x91)) (x85 (x67 x10 x20)) (x7 (x67 x10 x91)) (x22 (x67 x18 x18)) (x88 (x67 x18 x10)) (x100 (x67 x10 x135)) (x19 (x67 x135 x18)) (x48 (x67 x10 x10)) (x70 (x67 x135 x20)) (x8 (x67 x10 x18)) (x64 (x67 x20 x10)) (x75 (x67 x20 x20)) (x95 (x67 x20 x91)) (x32 (x67 x20 x18)) (x27 (x67 x91 x18)) (x72 (x67 x18 x91)) (x147 (x67 x135 x10)) (x15 (x67 x91 x10)) (x97 (x67 x20 x135)) (x83 (x67 x135 x135)) (x4 (x67 x18 x20)) (x126 (x67 x18 x135))) (let ((x120 (= x20 x83)) (x11 (= x91 x4)) (x52 (= x20 x22)) (x66 (= x91 x100)) (x54 (= x100 x10)) (x6 (= x15 x91)) (x134 (= x148 x18)) (x55 (= x10 x19)) (x111 (= x88 x18)) (x59 (= x97 x10)) (x44 (= x148 x20)) (x107 (= x135 x77)) (x131 (= x10 x95)) (x98 (= x72 x18)) (x140 (= x64 x135)) (x89 (= x20 x19)) (x31 (= x20 x4)) (x47 (= x20 x27)) (x146 (= x91 x75)) (x35 (= x18 x95)) (x121 (= x135 x75)) (x41 (= x135 x22)) (x86 (= x91 x70)) (x21 (= x20 x72)) (x16 (= x19 x135)) (x129 (= x4 x135)) (x50 (= x135 x9)) (x94 (= x135 x148)) (x23 (= x70 x18)) (x71 (= x83 x135)) (x12 (= x85 x10)) (x60 (= x72 x10)) (x102 (= x18 x83)) (x76 (= x70 x20)) (x139 (= x97 x20)) (x57 (= x7 x20)) (x138 (= x126 x91)) (x5 (= x10 x32)) (x1 (= x8 x10)) (x24 (= x135 x27)) (x118 (= x4 x10)) (x106 (= x95 x135)) (x154 (= x10 x48)) (x81 (= x79 x135)) (x137 (= x95 x91)) (x82 (= x7 x135)) (x136 (= x10 x77)) (x29 (= x10 x88)) (x56 (= x20 x126)) (x28 (= x79 x91)) (x133 (= x19 x91)) (x36 (= x135 x72)) (x51 (= x18 x8)) (x157 (= x22 x91)) (x125 (= x18 x32)) (x115 (= x75 x18)) (x109 (= x20 x75)) (x61 (= x147 x10)) (x68 (= x20 x85)) (x33 (= x4 x18)) (x14 (= x83 x10)) (x2 (= x27 x10)) (x141 (= x19 x18)) (x104 (= x15 x135)) (x87 (= x126 x10)) (x43 (= x100 x18)) (x63 (= x10 x75)) (x119 (= x97 x18)) (x42 (= x48 x18)) (x65 (= x148 x91)) (x108 (= x8 x91)) (x150 (= x20 x77)) (x143 (= x20 x48)) (x78 (= x85 x18)) (x80 (= x10 x15)) (x101 (= x64 x20)) (x159 (= x18 x79)) (x17 (= x9 x10)) (x112 (= x135 x100)) (x132 (= x10 x70)) (x13 (= x97 x135)) (x26 (= x20 x32)) (x124 (= x18 x147)) (x127 (= x18 x64)) (x128 (= x79 x20)) (x39 (= x32 x91)) (x155 (= x91 x48)) (x46 (= x10 x79)) (x92 (= x91 x64)) (x40 (= x9 x18)) (x30 (= x91 x72)) (x123 (= x20 x15)) (x130 (= x135 x126)) (x73 (= x18 x7)) (x113 (= x88 x135)) (x34 (= x22 x10)) (x110 (= x7 x91)) (x74 (= x8 x135)) (x45 (= x88 x20)) (x145 (= x135 x48)) (x25 (= x148 x10)) (x151 (= x8 x20)) (x37 (= x91 x147)) (x62 (= x10 x7)) (x90 (= x22 x18)) (x158 (= x91 x97)) (x38 (= x135 x32)) (x3 (= x85 x135)) (x49 (= x9 x20)) (x105 (= x91 x77)) (x152 (= x91 x9)) (x142 (= x77 x18)) (x58 (= x20 x147)) (x153 (= x18 x15)) (x149 (= x18 x27)) (x99 (= x20 x95)) (x53 (= x135 x147)) (x144 (= x126 x18)) (x93 (= x83 x91)) (x69 (= x91 x27)) (x122 (= x88 x91)) (x117 (= x10 x64)) (x116 (= x85 x91)) (x84 (= x70 x135)) (x103 (= x100 x20))) (and (and (and (and (and (and (and (or (or (or x45 (or x58 x143)) x101) x123) (or (or (or x151 (or x103 x143)) x68) x57)) (and (and (or (or x78 (or (or x43 x42) x51)) x73) (or (or x127 (or (or x42 x124) x111)) x153)) (and (and (or x82 (or x3 (or (or x145 x112) x74))) (or (or (or (or x145 x53) x113) x140) x104)) (and (or (or x117 (or x29 (or x61 x154))) x80) (or (or x12 (or (or x54 x154) x1)) x62))))) (and (or (or (or x108 (or x155 x66)) x116) x110) (or (or x92 (or (or x37 x155) x122)) x6))) (and (and (or (or x86 (or x133 (or x93 x37))) x65) (or (or (or (or x66 x93) x138) x158) x28)) (and (and (and (or (or x119 (or (or x102 x43) x144)) x159) (or (or (or (or x102 x124) x141) x23) x134)) (and (and (or (or (or x87 (or x54 x14)) x59) x46) (or (or (or x55 (or x61 x14)) x132) x25)) (and (or x94 (or x84 (or x16 (or x71 x53)))) (or x81 (or (or x130 (or x71 x112)) x13))))) (and (or x44 (or x76 (or (or x58 x120) x89))) (or x128 (or (or (or x120 x103) x56) x139)))))) (and (and (or (or (or x157 (or x133 x108)) x39) x69) (or (or x11 (or (or x138 x122) x157)) x30)) (and (and (and (and (or (or x38 (or (or x74 x16) x41)) x24) (or (or (or x41 (or x113 x130)) x129) x36)) (and (or x2 (or (or (or x1 x55) x34) x5)) (or (or (or (or x87 x29) x34) x118) x60))) (and (or x98 (or (or (or x144 x111) x90) x33)) (or (or x125 (or (or x51 x141) x90)) x149))) (and (or (or (or (or x151 x89) x52) x26) x47) (or (or (or x52 (or x45 x56)) x31) x21))))) (and (and (or (or (or x39 (or x158 x92)) x146) x137) (or x152 (or x146 (or (or x116 x86) x11)))) (and (and (and (or x35 (or x115 (or x125 (or x119 x127)))) (or (or (or x33 (or x78 x23)) x115) x40)) (and (and (or x106 (or x121 (or (or x140 x13) x38))) (or (or x121 (or x129 (or x84 x3))) x50)) (and (or x131 (or x63 (or x5 (or x117 x59)))) (or x17 (or (or x118 (or x12 x132)) x63))))) (and (or (or (or x26 (or x139 x101)) x109) x99) (or x49 (or x109 (or x31 (or x68 x76)))))))) (and (and (or x105 (or (or (or x65 x110) x30) x137)) (or x105 (or x152 (or (or x6 x28) x69)))) (and (and (or (or (or (or x123 x128) x47) x49) x150) (or x150 (or x99 (or (or x57 x44) x21)))) (and (and (or x142 (or (or (or x134 x73) x98) x35)) (or (or (or (or x159 x153) x149) x40) x142)) (and (and (or x136 (or (or (or x62 x25) x60) x131)) (or x136 (or (or x2 (or x46 x80)) x17))) (and (or (or (or (or x94 x82) x36) x106) x107) (or (or x50 (or x24 (or x104 x81))) x107))))))))))
(assert (and (not (= x20 x91)) (and (not (= x18 x91)) (and (and (and (and (and (not (= x91 x10)) (and (and (not (= x10 x135)) (not (= x18 x10))) (not (= x10 x20)))) (not (= x135 x18))) (not (= x20 x135))) (not (= x91 x135))) (not (= x18 x20))))))
(assert (let ((x66 (x67 x91 x10)) (x43 (x67 x135 x10)) (x141 (x67 x91 x18)) (x51 (x67 x18 x91)) (x32 (x67 x18 x18)) (x103 (x67 x10 x20)) (x34 (x67 x18 x135)) (x97 (x67 x10 x10)) (x102 (x67 x10 x18)) (x113 (x67 x135 x20)) (x122 (x67 x20 x20)) (x22 (x67 x135 x91)) (x58 (x67 x18 x10)) (x55 (x67 x135 x18)) (x37 (x67 x10 x91)) (x124 (x67 x10 x135)) (x120 (x67 x20 x10)) (x133 (x67 x91 x20)) (x111 (x67 x18 x20)) (x130 (x67 x20 x135)) (x87 (x67 x135 x135)) (x4 (x67 x91 x135)) (x108 (x67 x20 x91)) (x144 (x67 x20 x18)) (x140 (x67 x91 x91))) (let ((x3 (= x87 x18)) (x149 (= x97 x91)) (x83 (= x4 x10)) (x121 (= x18 x34)) (x21 (= x144 x91)) (x57 (= x130 x91)) (x73 (= x124 x91)) (x6 (= x91 x66)) (x26 (= x18 x37)) (x129 (= x102 x18)) (x95 (= x124 x18)) (x13 (= x135 x140)) (x27 (= x32 x135)) (x1 (= x87 x135)) (x101 (= x122 x18)) (x62 (= x20 x32)) (x145 (= x34 x10)) (x123 (= x55 x91)) (x25 (= x120 x20)) (x35 (= x91 x102)) (x152 (= x22 x91)) (x56 (= x135 x130)) (x106 (= x20 x51)) (x78 (= x130 x18)) (x105 (= x91 x140)) (x81 (= x20 x111)) (x150 (= x122 x91)) (x88 (= x10 x32)) (x68 (= x4 x18)) (x69 (= x4 x91)) (x107 (= x133 x20)) (x139 (= x18 x66)) (x64 (= x120 x10)) (x75 (= x43 x18)) (x157 (= x135 x66)) (x52 (= x111 x135)) (x94 (= x20 x22)) (x112 (= x133 x10)) (x50 (= x20 x66)) (x31 (= x141 x18)) (x40 (= x91 x43)) (x128 (= x91 x32)) (x33 (= x18 x144)) (x39 (= x18 x140)) (x47 (= x120 x91)) (x48 (= x43 x10)) (x45 (= x135 x103)) (x137 (= x108 x91)) (x28 (= x37 x91)) (x151 (= x113 x135)) (x127 (= x18 x32)) (x9 (= x55 x18)) (x72 (= x135 x58)) (x60 (= x103 x20)) (x132 (= x135 x51)) (x53 (= x37 x10)) (x89 (= x135 x144)) (x158 (= x18 x108)) (x46 (= x20 x102)) (x38 (= x18 x97)) (x76 (= x18 x22)) (x16 (= x135 x34)) (x136 (= x113 x20)) (x85 (= x10 x58)) (x7 (= x10 x102)) (x42 (= x130 x10)) (x17 (= x20 x55)) (x30 (= x133 x91)) (x14 (= x10 x66)) (x24 (= x20 x122)) (x63 (= x108 x135)) (x110 (= x91 x141)) (x49 (= x103 x91)) (x143 (= x113 x10)) (x117 (= x135 x37)) (x23 (= x113 x18)) (x74 (= x102 x135)) (x36 (= x20 x141)) (x115 (= x111 x18)) (x12 (= x141 x135)) (x100 (= x124 x10)) (x41 (= x55 x135)) (x148 (= x10 x51)) (x19 (= x22 x10)) (x5 (= x135 x22)) (x8 (= x87 x10)) (x109 (= x51 x18)) (x126 (= x10 x140)) (x154 (= x97 x10)) (x98 (= x58 x91)) (x11 (= x20 x124)) (x146 (= x87 x20)) (x77 (= x20 x37)) (x153 (= x108 x20)) (x86 (= x20 x43)) (x147 (= x10 x55)) (x93 (= x135 x43)) (x118 (= x133 x135)) (x44 (= x91 x113)) (x84 (= x58 x18)) (x79 (= x97 x135)) (x134 (= x91 x87)) (x71 (= x10 x108)) (x65 (= x91 x51)) (x61 (= x10 x111)) (x138 (= x122 x135)) (x70 (= x10 x141)) (x104 (= x20 x144)) (x29 (= x135 x124)) (x119 (= x120 x18)) (x99 (= x91 x111)) (x159 (= x20 x140)) (x116 (= x97 x20)) (x2 (= x20 x34)) (x142 (= x34 x91)) (x15 (= x103 x10)) (x54 (= x10 x122)) (x125 (= x18 x103)) (x155 (= x144 x10)) (x59 (= x135 x4)) (x80 (= x58 x20)) (x90 (= x135 x120)) (x92 (= x18 x133)) (x131 (= x130 x20)) (x82 (= x4 x20))) (and (and (or (or (and x159 x159) (or (or (or (and x82 x94) (and x50 x77)) (and x36 x106)) (and x107 x153))) (or (or (or (or (or (or (and x17 x2) (or (and x11 x86) (and x146 x146))) (and x131 x136)) (and x94 x82)) (or (or (or (or (and x116 x116) (and x86 x11)) (and x46 x80)) (and x25 x60)) (and x50 x77))) (or (or (or (and x62 x62) (or (and x46 x80) (and x17 x2))) (and x81 x104)) (and x36 x106))) (or (and x107 x153) (or (and x24 x24) (or (or (and x136 x131) (and x25 x60)) (and x104 x81)))))) (and (and (or (or (or (or (or (or (and x90 x45) (and x56 x151)) (and x89 x52)) (and x138 x138)) (and x118 x63)) (or (or (or (or (or (and x41 x16) (or (and x1 x1) (and x29 x93))) (and x56 x151)) (and x5 x59)) (or (or (or (or (and x93 x29) (and x79 x79)) (and x72 x74)) (and x45 x90)) (and x157 x117))) (or (or (and x89 x52) (or (or (and x72 x74) (and x41 x16)) (and x27 x27))) (and x132 x12)))) (or (and x13 x13) (or (and x118 x63) (or (or (and x59 x5) (and x157 x117)) (and x132 x12))))) (or (or (and x126 x126) (or (and x112 x71) (or (or (and x53 x14) (and x19 x83)) (and x148 x70)))) (or (or (and x112 x71) (or (and x54 x54) (or (and x155 x61) (or (and x42 x143) (and x15 x64))))) (or (or (or (and x53 x14) (or (or (and x7 x85) (or (and x48 x100) (and x154 x154))) (and x64 x15))) (or (and x19 x83) (or (and x143 x42) (or (or (and x48 x100) (and x8 x8)) (and x145 x147))))) (or (or (or (and x88 x88) (or (and x7 x85) (and x145 x147))) (and x61 x155)) (and x148 x70)))))) (or (or (or (and x92 x158) (or (and x101 x101) (or (or (and x78 x23) (and x125 x119)) (and x33 x115)))) (or (or (or (or (or (or (and x95 x75) (and x38 x38)) (and x129 x84)) (and x125 x119)) (and x139 x26)) (or (and x76 x68) (or (and x23 x78) (or (and x9 x121) (or (and x3 x3) (and x95 x75)))))) (or (and x109 x31) (or (or (or (and x9 x121) (and x84 x129)) (and x127 x127)) (and x115 x33))))) (or (and x39 x39) (or (or (or (and x26 x139) (and x68 x76)) (and x109 x31)) (and x92 x158)))))) (or (or (or (or (or (or (or (or (and x40 x73) (and x134 x134)) (and x142 x123)) (and x44 x57)) (and x69 x152)) (or (and x28 x6) (or (and x47 x49) (or (or (and x40 x73) (and x149 x149)) (and x35 x98))))) (or (and x110 x65) (or (and x99 x21) (or (or (and x35 x98) (and x142 x123)) (and x128 x128))))) (or (or (or (and x99 x21) (or (and x49 x47) (and x57 x44))) (and x150 x150)) (and x30 x137))) (or (and x105 x105) (or (and x30 x137) (or (or (and x6 x28) (and x152 x69)) (and x65 x110)))))))))
(assert (or (= (x67 x91 (x67 x91 x91)) x91) (or (or (= x18 (x67 x18 (x67 x18 x18))) (or (= (x67 x10 (x67 x10 x10)) x10) (= (x67 x135 (x67 x135 x135)) x135))) (= x20 (x67 x20 (x67 x20 x20))))))
(assert (or (or (or (or (and (not (= x91 (x67 x10 (x67 x10 x91)))) (and (and (and (not (= (x67 x10 (x67 x10 x10)) x10)) (not (= x135 (x67 x10 (x67 x10 x135))))) (not (= x18 (x67 x10 (x67 x10 x18))))) (not (= x20 (x67 x10 (x67 x10 x20)))))) (and (and (and (and (not (= (x67 x135 (x67 x135 x135)) x135)) (not (= (x67 x135 (x67 x135 x10)) x10))) (not (= (x67 x135 (x67 x135 x18)) x18))) (not (= (x67 x135 (x67 x135 x20)) x20))) (not (= x91 (x67 x135 (x67 x135 x91)))))) (and (and (not (= x20 (x67 x18 (x67 x18 x20)))) (and (not (= x18 (x67 x18 (x67 x18 x18)))) (and (not (= x10 (x67 x18 (x67 x18 x10)))) (not (= x135 (x67 x18 (x67 x18 x135))))))) (not (= x91 (x67 x18 (x67 x18 x91)))))) (and (and (not (= (x67 x20 (x67 x20 x20)) x20)) (and (not (= x18 (x67 x20 (x67 x20 x18)))) (and (not (= x10 (x67 x20 (x67 x20 x10)))) (not (= (x67 x20 (x67 x20 x135)) x135))))) (not (= (x67 x20 (x67 x20 x91)) x91)))) (and (not (= x91 (x67 x91 (x67 x91 x91)))) (and (and (and (not (= (x67 x91 (x67 x91 x135)) x135)) (not (= x10 (x67 x91 (x67 x91 x10))))) (not (= (x67 x91 (x67 x91 x18)) x18))) (not (= (x67 x91 (x67 x91 x20)) x20))))))
(assert (let ((x88 (not (= x18 (x67 x18 x18)))) (x148 (x67 x18 x91)) (x147 (x67 x135 x18)) (x19 (x67 x135 x91)) (x48 (x67 x135 x10)) (x154 (not (= x10 (x67 x10 x10)))) (x64 (x67 x20 x10)) (x85 (x67 x18 x10)) (x61 (x67 x18 x20)) (x112 (x67 x91 x20)) (x15 (x67 x10 x20)) (x100 (x67 x10 x135)) (x83 (x67 x91 x135)) (x42 (x67 x20 x135)) (x54 (not (= x20 (x67 x20 x20)))) (x143 (x67 x135 x20)) (x126 (not (= x91 (x67 x91 x91)))) (x155 (x67 x20 x18)) (x7 (x67 x10 x18)) (x14 (x67 x91 x10)) (x8 (not (= (x67 x135 x135) x135))) (x145 (x67 x18 x135)) (x70 (x67 x91 x18)) (x71 (x67 x20 x91)) (x53 (x67 x10 x91))) (and (and (and (and (and (and (and (and (or x8 x8) (or (not (= x48 x135)) (not (= x100 x135)))) (or (not (= x147 x135)) (not (= x135 x145)))) (or (not (= x42 x135)) (not (= x135 x143)))) (or (not (= x135 x83)) (not (= x135 x19)))) (and (or (not (= x53 x10)) (not (= x10 x14))) (and (or (not (= x15 x10)) (not (= x10 x64))) (and (or (not (= x85 x10)) (not (= x10 x7))) (and (or (not (= x100 x10)) (not (= x48 x10))) (or x154 x154)))))) (and (or (not (= x148 x18)) (not (= x18 x70))) (and (or (not (= x18 x155)) (not (= x18 x61))) (and (and (or (not (= x18 x7)) (not (= x85 x18))) (or (not (= x147 x18)) (not (= x18 x145)))) (or x88 x88))))) (and (and (and (or (not (= x155 x20)) (not (= x61 x20))) (and (or (not (= x20 x42)) (not (= x20 x143))) (or (not (= x64 x20)) (not (= x20 x15))))) (or x54 x54)) (or (not (= x20 x112)) (not (= x20 x71))))) (and (or x126 x126) (and (or (not (= x91 x71)) (not (= x112 x91))) (and (and (or (not (= x19 x91)) (not (= x83 x91))) (or (not (= x91 x14)) (not (= x53 x91)))) (or (not (= x91 x70)) (not (= x91 x148)))))))))
(assert (not (and (= x10 (x67 x91 x91)) (and (= x135 (x67 x91 x20)) (and (and (= (x67 x91 x135) x91) (and (= (x67 x91 x10) x18) (and (and (and (and (= x18 (x67 x20 x135)) (and (and (= x18 (x67 x18 x91)) (and (and (and (= x135 (x67 x18 x135)) (and (= (x67 x18 x10) x20) (and (= (x67 x135 x91) x135) (and (and (= x10 (x67 x135 x18)) (and (and (= x91 (x67 x135 x10)) (and (= (x67 x10 x91) x91) (and (= (x67 x10 x20) x20) (and (and (= x135 (x67 x10 x10)) (= x10 (x67 x10 x135))) (= x18 (x67 x10 x18)))))) (= (x67 x135 x135) x20))) (= x18 (x67 x135 x20)))))) (= x91 (x67 x18 x18))) (= (x67 x18 x20) x10))) (= x10 (x67 x20 x10)))) (= (x67 x20 x18) x135)) (= (x67 x20 x20) x91)) (= x20 (x67 x20 x91))))) (= x20 (x67 x91 x18)))))))
(assert (not (and (= (x67 x91 x91) x10) (and (and (and (= (x67 x91 x135) x91) (and (= (x67 x91 x10) x18) (and (and (= x91 (x67 x20 x20)) (and (and (= (x67 x20 x135) x135) (and (= x10 (x67 x20 x10)) (and (and (and (and (= (x67 x18 x135) x18) (and (= x20 (x67 x18 x10)) (and (and (and (and (= (x67 x135 x135) x20) (and (= (x67 x135 x10) x91) (and (and (and (and (= (x67 x10 x10) x135) (= x10 (x67 x10 x135))) (= (x67 x10 x18) x91)) (= x20 (x67 x10 x20))) (= x18 (x67 x10 x91))))) (= (x67 x135 x18) x10)) (= (x67 x135 x20) x18)) (= (x67 x135 x91) x135)))) (= x135 (x67 x18 x18))) (= (x67 x18 x20) x10)) (= x91 (x67 x18 x91))))) (= (x67 x20 x18) x18))) (= (x67 x20 x91) x20)))) (= x20 (x67 x91 x18))) (= (x67 x91 x20) x135)))))
(assert (let ((x19 (x67 x91 x20)) (x53 (x67 x18 x20)) (x155 (x67 x20 x18)) (x147 (x67 x18 x135)) (x64 (x67 x91 x135)) (x126 (x67 x91 x91)) (x100 (x67 x18 x10)) (x88 (x67 x20 x135)) (x48 (x67 x135 x10)) (x15 (x67 x10 x18)) (x145 (x67 x135 x135)) (x8 (x67 x20 x10)) (x143 (x67 x18 x18)) (x42 (x67 x135 x18)) (x148 (x67 x135 x91)) (x112 (x67 x18 x91)) (x70 (x67 x10 x91)) (x61 (x67 x91 x18)) (x154 (x67 x10 x10)) (x54 (x67 x10 x20)) (x14 (x67 x135 x20)) (x71 (x67 x20 x91)) (x7 (x67 x10 x135)) (x85 (x67 x91 x10)) (x83 (x67 x20 x20))) (and (and (and (and (and (not (= x155 x71)) (and (not (= x155 x83)) (and (and (and (and (not (= x71 x8)) (and (and (not (= x8 x88)) (not (= x155 x8))) (not (= x83 x8)))) (not (= x88 x155))) (not (= x83 x88))) (not (= x71 x88))))) (not (= x71 x83))) (and (and (and (and (not (= x148 x42)) (and (and (and (not (= x14 x145)) (and (and (and (not (= x14 x48)) (and (not (= x42 x48)) (not (= x48 x145)))) (not (= x148 x48))) (not (= x42 x145)))) (not (= x148 x145))) (not (= x14 x42)))) (not (= x14 x148))) (and (and (and (not (= x54 x15)) (and (and (and (not (= x7 x15)) (and (not (= x154 x70)) (and (not (= x54 x154)) (and (not (= x15 x154)) (not (= x7 x154)))))) (not (= x54 x7))) (not (= x7 x70)))) (not (= x70 x15))) (not (= x54 x70)))) (and (not (= x112 x53)) (and (not (= x112 x143)) (and (not (= x53 x143)) (and (not (= x112 x147)) (and (not (= x147 x53)) (and (not (= x143 x147)) (and (and (not (= x53 x100)) (and (not (= x100 x143)) (not (= x100 x147)))) (not (= x112 x100))))))))))) (and (not (= x19 x126)) (and (not (= x61 x126)) (and (and (not (= x64 x126)) (and (and (and (and (not (= x85 x19)) (and (not (= x85 x64)) (not (= x61 x85)))) (not (= x126 x85))) (not (= x64 x61))) (not (= x19 x64)))) (not (= x61 x19)))))) (and (and (and (and (and (not (= x148 x126)) (and (not (= x148 x71)) (and (not (= x112 x148)) (and (not (= x70 x126)) (and (and (not (= x70 x112)) (not (= x70 x148))) (not (= x70 x71))))))) (not (= x112 x71))) (not (= x112 x126))) (not (= x126 x71))) (and (and (and (and (and (and (and (not (= x145 x64)) (and (not (= x88 x145)) (and (not (= x145 x147)) (and (not (= x7 x64)) (and (and (not (= x7 x145)) (not (= x7 x147))) (not (= x88 x7))))))) (not (= x147 x88))) (not (= x147 x64))) (not (= x88 x64))) (and (and (not (= x100 x85)) (and (and (not (= x85 x48)) (and (not (= x48 x8)) (and (and (and (and (not (= x154 x48)) (not (= x100 x154))) (not (= x8 x154))) (not (= x154 x85))) (not (= x48 x100))))) (not (= x100 x8)))) (not (= x85 x8)))) (and (not (= x155 x61)) (and (not (= x61 x143)) (and (not (= x155 x143)) (and (and (and (and (not (= x15 x61)) (and (not (= x155 x15)) (and (not (= x42 x15)) (not (= x15 x143))))) (not (= x143 x42))) (not (= x42 x155))) (not (= x42 x61))))))) (and (not (= x19 x83)) (and (and (not (= x83 x53)) (and (not (= x19 x14)) (and (not (= x83 x14)) (and (not (= x53 x14)) (and (not (= x19 x54)) (and (and (not (= x54 x14)) (not (= x53 x54))) (not (= x83 x54)))))))) (not (= x53 x19)))))))))
(assert (let ((x85 (x67 x91 x91)) (x100 (x67 x18 x18)) (x48 (x67 x135 x135)) (x8 (x67 x20 x20)) (x154 (x67 x10 x10))) (and (not (= x91 (x67 x85 x85))) (and (and (and (not (= x10 (x67 x154 x154))) (not (= (x67 x48 x48) x135))) (not (= x18 (x67 x100 x100)))) (not (= x20 (x67 x8 x8)))))))
(assert (let ((x8 (x67 x20 x20)) (x85 (x67 x91 x91)) (x100 (x67 x18 x18)) (x48 (x67 x135 x135)) (x154 (x67 x10 x10))) (or (and (not (= x91 x85)) (and (not (= x8 x91)) (and (and (not (= x154 x91)) (not (= x91 x48))) (not (= x91 x100))))) (or (or (and (not (= x18 x85)) (and (and (and (not (= x18 x154)) (not (= x48 x18))) (not (= x18 x100))) (not (= x18 x8)))) (or (and (not (= x85 x135)) (and (and (not (= x100 x135)) (and (not (= x48 x135)) (not (= x135 x154)))) (not (= x8 x135)))) (and (and (and (not (= x10 x100)) (and (not (= x10 x154)) (not (= x48 x10)))) (not (= x8 x10))) (not (= x10 x85))))) (and (not (= x20 x85)) (and (not (= x8 x20)) (and (not (= x20 x100)) (and (not (= x154 x20)) (not (= x20 x48))))))))))
(assert (or (and (not (= (x67 (x67 x91 x91) x91) x91)) (and (not (= x20 (x67 (x67 x91 x20) x91))) (and (not (= (x67 (x67 x91 x18) x91) x18)) (and (not (= x10 (x67 (x67 x91 x10) x91))) (not (= x135 (x67 (x67 x91 x135) x91))))))) (or (or (or (and (not (= x91 (x67 (x67 x10 x91) x10))) (and (and (and (not (= (x67 (x67 x10 x10) x10) x10)) (not (= (x67 (x67 x10 x135) x10) x135))) (not (= x18 (x67 (x67 x10 x18) x10)))) (not (= (x67 (x67 x10 x20) x10) x20)))) (and (and (and (not (= x18 (x67 (x67 x135 x18) x135))) (and (not (= x135 (x67 (x67 x135 x135) x135))) (not (= (x67 (x67 x135 x10) x135) x10)))) (not (= x20 (x67 (x67 x135 x20) x135)))) (not (= x91 (x67 (x67 x135 x91) x135))))) (and (not (= (x67 (x67 x18 x91) x18) x91)) (and (and (and (not (= (x67 (x67 x18 x10) x18) x10)) (not (= x135 (x67 (x67 x18 x135) x18)))) (not (= x18 (x67 (x67 x18 x18) x18)))) (not (= x20 (x67 (x67 x18 x20) x18)))))) (and (not (= (x67 (x67 x20 x91) x20) x91)) (and (not (= (x67 (x67 x20 x20) x20) x20)) (and (and (not (= (x67 (x67 x20 x135) x20) x135)) (not (= x10 (x67 (x67 x20 x10) x20)))) (not (= x18 (x67 (x67 x20 x18) x20)))))))))
(assert (or (and (and (and (not (= x18 (x67 x91 x18))) (and (not (= (x67 x91 x10) x10)) (not (= x135 (x67 x91 x135))))) (not (= x20 (x67 x91 x20)))) (not (= (x67 x91 x91) x91))) (or (and (not (= (x67 x20 x91) x91)) (and (and (not (= (x67 x20 x18) x18)) (and (not (= x10 (x67 x20 x10))) (not (= x135 (x67 x20 x135))))) (not (= x20 (x67 x20 x20))))) (or (and (not (= (x67 x18 x91) x91)) (and (and (not (= (x67 x18 x18) x18)) (and (not (= x10 (x67 x18 x10))) (not (= x135 (x67 x18 x135))))) (not (= x20 (x67 x18 x20))))) (or (and (not (= (x67 x135 x91) x91)) (and (and (and (not (= (x67 x135 x135) x135)) (not (= x10 (x67 x135 x10)))) (not (= x18 (x67 x135 x18)))) (not (= x20 (x67 x135 x20))))) (and (not (= (x67 x10 x91) x91)) (and (not (= (x67 x10 x20) x20)) (and (and (not (= (x67 x10 x10) x10)) (not (= x135 (x67 x10 x135)))) (not (= (x67 x10 x18) x18))))))))))
(assert (let ((x42 (x67 x18 x135)) (x53 (x67 x20 x18)) (x147 (x67 x135 x18)) (x14 (x67 x20 x135)) (x19 (x67 x20 x91)) (x85 (x67 x10 x91)) (x64 (x67 x135 x91)) (x143 (x67 x18 x18)) (x70 (x67 x91 x10)) (x15 (x67 x18 x10)) (x8 (x67 x10 x20)) (x155 (x67 x18 x20)) (x83 (x67 x20 x20)) (x148 (x67 x91 x135)) (x54 (x67 x20 x10)) (x71 (x67 x91 x20)) (x61 (x67 x18 x91)) (x154 (x67 x10 x10)) (x7 (x67 x135 x10)) (x88 (x67 x135 x20)) (x112 (x67 x91 x18)) (x100 (x67 x10 x18)) (x145 (x67 x135 x135)) (x48 (x67 x10 x135)) (x126 (x67 x91 x91))) (and (and (and (and (and (and (and (and (or (or (or (= x154 x18) (or (= x154 x135) (= x154 x10))) (= x20 x154)) (= x154 x91)) (or (= x48 x91) (or (= x20 x48) (or (= x48 x18) (or (= x48 x10) (= x135 x48)))))) (or (or (or (= x100 x18) (or (= x100 x135) (= x10 x100))) (= x20 x100)) (= x91 x100))) (or (or (or (= x18 x8) (or (= x8 x10) (= x8 x135))) (= x8 x20)) (= x8 x91))) (or (= x85 x91) (or (or (= x18 x85) (or (= x135 x85) (= x10 x85))) (= x85 x20)))) (and (or (= x64 x91) (or (= x20 x64) (or (or (= x64 x135) (= x64 x10)) (= x18 x64)))) (and (and (or (or (= x20 x147) (or (= x18 x147) (or (= x147 x135) (= x10 x147)))) (= x91 x147)) (and (or (= x91 x145) (or (= x20 x145) (or (= x18 x145) (or (= x145 x10) (= x145 x135))))) (or (= x7 x91) (or (= x7 x20) (or (= x7 x18) (or (= x7 x10) (= x135 x7))))))) (or (or (= x20 x88) (or (= x18 x88) (or (= x135 x88) (= x10 x88)))) (= x88 x91))))) (and (or (or (or (= x18 x61) (or (= x10 x61) (= x61 x135))) (= x61 x20)) (= x91 x61)) (and (or (= x155 x91) (or (= x20 x155) (or (= x155 x18) (or (= x135 x155) (= x10 x155))))) (and (or (or (= x20 x143) (or (or (= x143 x135) (= x10 x143)) (= x143 x18))) (= x143 x91)) (and (or (or (or (or (= x42 x135) (= x42 x10)) (= x18 x42)) (= x42 x20)) (= x91 x42)) (or (= x91 x15) (or (or (= x15 x18) (or (= x135 x15) (= x15 x10))) (= x20 x15)))))))) (and (and (and (and (or (or (= x20 x14) (or (= x18 x14) (or (= x14 x10) (= x135 x14)))) (= x14 x91)) (or (or (= x20 x54) (or (= x54 x18) (or (= x54 x10) (= x54 x135)))) (= x91 x54))) (or (= x53 x91) (or (= x53 x20) (or (or (= x53 x135) (= x10 x53)) (= x18 x53))))) (or (= x83 x91) (or (or (or (= x83 x135) (= x83 x10)) (= x18 x83)) (= x83 x20)))) (or (= x19 x91) (or (or (= x18 x19) (or (= x19 x10) (= x135 x19))) (= x20 x19))))) (and (and (and (or (or (or (= x18 x112) (or (= x135 x112) (= x10 x112))) (= x20 x112)) (= x91 x112)) (and (or (or (= x20 x70) (or (= x70 x18) (or (= x70 x10) (= x70 x135)))) (= x91 x70)) (or (or (= x20 x148) (or (or (= x148 x10) (= x135 x148)) (= x18 x148))) (= x91 x148)))) (or (= x71 x91) (or (= x20 x71) (or (= x71 x18) (or (= x135 x71) (= x10 x71)))))) (or (= x126 x91) (or (or (or (= x135 x126) (= x126 x10)) (= x126 x18)) (= x20 x126)))))))
(assert (let ((x154 (x67 x10 x10)) (x155 (x67 x20 x18)) (x88 (x67 x18 x18)) (x126 (x67 x91 x91)) (x42 (x67 x20 x135)) (x143 (x67 x135 x20)) (x8 (x67 x135 x135)) (x48 (x67 x135 x10)) (x61 (x67 x18 x20)) (x85 (x67 x18 x10)) (x54 (x67 x20 x20)) (x53 (x67 x10 x91)) (x145 (x67 x18 x135)) (x71 (x67 x20 x91)) (x64 (x67 x20 x10)) (x83 (x67 x91 x135)) (x112 (x67 x91 x20)) (x15 (x67 x10 x20)) (x100 (x67 x10 x135)) (x147 (x67 x135 x18)) (x19 (x67 x135 x91)) (x14 (x67 x91 x10)) (x148 (x67 x18 x91)) (x70 (x67 x91 x18)) (x7 (x67 x10 x18))) (and (and (and (or (or (or (not (= x88 x88)) (or (not (= x7 x85)) (not (= x145 x147)))) (not (= x61 x155))) (not (= x70 x148))) (and (or (not (= x14 x53)) (or (not (= x15 x64)) (or (or (not (= x154 x154)) (not (= x48 x100))) (not (= x7 x85))))) (or (or (not (= x143 x42)) (or (or (not (= x8 x8)) (not (= x48 x100))) (not (= x147 x145)))) (not (= x83 x19))))) (or (or (or (or (not (= x15 x64)) (not (= x42 x143))) (not (= x155 x61))) (not (= x54 x54))) (not (= x112 x71)))) (or (not (= x126 x126)) (or (or (not (= x70 x148)) (or (not (= x19 x83)) (not (= x14 x53)))) (not (= x112 x71)))))))
(assert (or (or (= (x67 (x67 x20 x20) x20) x20) (or (or (= x10 (x67 (x67 x10 x10) x10)) (= x135 (x67 (x67 x135 x135) x135))) (= (x67 (x67 x18 x18) x18) x18))) (= (x67 (x67 x91 x91) x91) x91)))
(assert (or (and (and (and (and (not (= (x67 (x67 x135 x91) x91) x135)) (not (= (x67 (x67 x10 x91) x91) x10))) (not (= x18 (x67 (x67 x18 x91) x91)))) (not (= x20 (x67 (x67 x20 x91) x91)))) (not (= (x67 (x67 x91 x91) x91) x91))) (or (and (not (= (x67 (x67 x91 x20) x20) x91)) (and (and (not (= (x67 (x67 x18 x20) x20) x18)) (and (not (= (x67 (x67 x135 x20) x20) x135)) (not (= x10 (x67 (x67 x10 x20) x20))))) (not (= x20 (x67 (x67 x20 x20) x20))))) (or (and (not (= (x67 (x67 x91 x18) x18) x91)) (and (and (not (= (x67 (x67 x18 x18) x18) x18)) (and (not (= x10 (x67 (x67 x10 x18) x18))) (not (= (x67 (x67 x135 x18) x18) x135)))) (not (= x20 (x67 (x67 x20 x18) x18))))) (or (and (not (= x91 (x67 (x67 x91 x10) x10))) (and (not (= (x67 (x67 x20 x10) x10) x20)) (and (and (not (= x135 (x67 (x67 x135 x10) x10))) (not (= x10 (x67 (x67 x10 x10) x10)))) (not (= x18 (x67 (x67 x18 x10) x10)))))) (and (not (= (x67 (x67 x91 x135) x135) x91)) (and (not (= (x67 (x67 x20 x135) x135) x20)) (and (and (not (= (x67 (x67 x10 x135) x135) x10)) (not (= (x67 (x67 x135 x135) x135) x135))) (not (= x18 (x67 (x67 x18 x135) x135)))))))))))
(assert (let ((x85 (x67 x10 x91)) (x7 (x67 x135 x10)) (x155 (x67 x18 x20)) (x15 (x67 x18 x10)) (x100 (x67 x10 x18)) (x148 (x67 x91 x135)) (x19 (x67 x20 x91)) (x83 (x67 x20 x20)) (x8 (x67 x10 x20)) (x88 (x67 x135 x20)) (x112 (x67 x91 x18)) (x42 (x67 x18 x135)) (x145 (x67 x135 x135)) (x54 (x67 x20 x10)) (x14 (x67 x20 x135)) (x154 (x67 x10 x10)) (x48 (x67 x10 x135)) (x61 (x67 x18 x91)) (x70 (x67 x91 x10)) (x53 (x67 x20 x18)) (x71 (x67 x91 x20)) (x126 (x67 x91 x91)) (x64 (x67 x135 x91)) (x147 (x67 x135 x18)) (x143 (x67 x18 x18))) (and (or (= (x67 x126 x126) x91) (or (= (x67 x71 x71) x20) (or (or (= (x67 x70 x70) x10) (= x135 (x67 x148 x148))) (= (x67 x112 x112) x18)))) (and (or (= x91 (x67 x19 x19)) (or (= x20 (x67 x83 x83)) (or (= x18 (x67 x53 x53)) (or (= x135 (x67 x14 x14)) (= (x67 x54 x54) x10))))) (and (and (or (= (x67 x64 x64) x91) (or (or (= x18 (x67 x147 x147)) (or (= x135 (x67 x145 x145)) (= x10 (x67 x7 x7)))) (= (x67 x88 x88) x20))) (or (= (x67 x85 x85) x91) (or (or (= (x67 x100 x100) x18) (or (= (x67 x48 x48) x135) (= x10 (x67 x154 x154)))) (= x20 (x67 x8 x8))))) (or (or (= x20 (x67 x155 x155)) (or (= x18 (x67 x143 x143)) (or (= (x67 x15 x15) x10) (= (x67 x42 x42) x135)))) (= x91 (x67 x61 x61))))))))
(check-sat)
(exit)
